letting n =  10
letting blocks =  [[1, 2], [1, 3], [1, 5], [1, 6], [1, 7], [1, 10], [2, 1], [2, 4], [2, 5], [2, 7], [2, 8], [2, 9], [3, 1], [3, 3], [3, 4], [3, 5], [3, 6], [3, 9], [4, 1], [4, 2], [4, 4], [4, 5], [4, 7], [4, 9], [5, 2], [5, 6], [5, 8], [5, 10], [6, 1], [6, 2], [6, 4], [6, 8], [6, 9], [6, 10], [7, 3], [7, 5], [7, 6], [7, 7], [7, 9], [7, 10], [8, 2], [8, 3], [8, 4], [8, 7], [8, 8], [8, 10], [9, 1], [9, 2], [9, 3], [9, 4], [9, 6], [9, 7], [10, 1], [10, 3], [10, 5], [10, 6], [10, 9], [10, 10]]
